10	5
0	5	4	1	3	5	2
1	3	9	6	10
2	3	8	6	7
3	5	6	7	10	8	9
4	5	9	10	6	7	8
5	5	7	10	9	8	6
6	1	11
7	1	11
8	1	11
9	1	11
10	1	11
11	0
0	0	0	0	0	0	0
1	5	0	0	0	5	0
2	6	0	3	1	0	0
3	6	0	0	0	1	3
4	2	0	0	1	0	2
5	1	0	0	0	0	2
6	3	5	0	3	0	4
7	9	4	2	4	2	2
8	2	3	1	5	0	0
9	5	3	1	4	3	2
10	9	0	2	0	0	0
11	0	0	0	0	0	0
5	5	5	5	5
